 Code   431
 Dimension, Fixed Cost
   100        3000
 Facility, Client, Transportation Cost
     1        6           1
     1       11           2
     1       19           0
     1       33           3
     1       62           2
     1       66           3
     1       68           1
     1       75           0
     1       94           3
     1       95           1
     2        5           1
     2       31           3
     2       43           1
     2       45           3
     2       47           2
     2       52           0
     2       53           1
     2       62           3
     2       68           0
     2       95           4
     3        5           2
     3        9           3
     3       11           0
     3       14           4
     3       19           3
     3       34           1
     3       56           0
     3       80           4
     3       88           1
     3       89           4
     4        7           3
     4       20           0
     4       28           3
     4       43           2
     4       72           1
     4       79           2
     4       83           4
     4       88           3
     4       93           1
     4       99           2
     5        8           0
     5        9           4
     5       12           4
     5       19           4
     5       40           0
     5       63           0
     5       75           1
     5       76           3
     5       85           4
     5       98           0
     6        5           2
     6       11           1
     6       22           4
     6       27           0
     6       31           3
     6       38           2
     6       39           1
     6       55           4
     6       80           2
     6      100           0
     7        7           4
     7       35           0
     7       40           4
     7       46           4
     7       54           4
     7       56           4
     7       63           3
     7       69           4
     7       70           3
     7       77           2
     8        2           2
     8       13           4
     8       14           2
     8       24           2
     8       49           2
     8       58           0
     8       74           0
     8       81           1
     8       88           3
     8       98           2
     9        4           4
     9        5           4
     9       12           0
     9       27           4
     9       32           0
     9       43           2
     9       54           0
     9       56           0
     9       68           0
     9       90           1
    10       11           0
    10       22           2
    10       36           2
    10       58           1
    10       73           4
    10       80           0
    10       85           3
    10       86           2
    10       95           4
    10       97           4
    11        2           1
    11       13           4
    11       29           4
    11       35           3
    11       41           0
    11       47           1
    11       72           2
    11       87           0
    11       89           1
    11      100           0
    12        1           0
    12       13           3
    12       32           0
    12       51           2
    12       57           2
    12       69           3
    12       72           3
    12       78           0
    12       84           2
    12       99           3
    13        4           1
    13        6           0
    13       16           1
    13       32           4
    13       42           4
    13       60           1
    13       61           3
    13       67           1
    13       70           3
    13       94           1
    14       37           3
    14       48           1
    14       49           4
    14       56           2
    14       58           3
    14       63           4
    14       70           3
    14       86           0
    14       90           0
    14       92           3
    15       12           2
    15       20           2
    15       21           3
    15       26           3
    15       31           2
    15       42           2
    15       51           2
    15       71           0
    15       75           1
    15       96           4
    16       25           4
    16       31           3
    16       39           2
    16       53           1
    16       70           2
    16       74           1
    16       80           3
    16       84           0
    16       94           1
    16      100           3
    17       18           3
    17       31           1
    17       34           4
    17       36           3
    17       51           4
    17       73           2
    17       76           3
    17       85           3
    17       90           1
    17       92           4
    18        8           2
    18       20           1
    18       26           1
    18       33           4
    18       61           1
    18       70           3
    18       74           2
    18       78           0
    18       79           1
    18       86           2
    19       21           2
    19       23           3
    19       35           1
    19       39           3
    19       41           4
    19       45           1
    19       89           4
    19       93           0
    19       94           1
    19       97           2
    20        5           1
    20        7           2
    20       16           2
    20       25           0
    20       29           0
    20       33           4
    20       56           0
    20       66           3
    20       76           2
    20       84           1
    21        8           3
    21       16           0
    21       20           3
    21       29           0
    21       37           2
    21       42           1
    21       51           2
    21       66           4
    21       73           3
    21       80           4
    22       13           1
    22       21           0
    22       31           0
    22       42           1
    22       47           0
    22       53           2
    22       58           3
    22       63           1
    22       64           4
    22       91           4
    23       21           4
    23       29           3
    23       33           1
    23       35           2
    23       60           2
    23       63           3
    23       82           1
    23       86           0
    23       90           0
    23       94           3
    24       21           2
    24       26           3
    24       31           1
    24       32           0
    24       41           1
    24       42           2
    24       62           1
    24       68           4
    24       69           3
    24       76           4
    25        5           4
    25        9           2
    25       10           0
    25       13           3
    25       30           1
    25       35           1
    25       48           0
    25       63           1
    25       85           3
    25       93           3
    26       12           2
    26       18           0
    26       42           3
    26       43           2
    26       51           1
    26       56           2
    26       69           3
    26       70           3
    26       74           0
    26       89           1
    27       14           2
    27       15           1
    27       25           1
    27       39           3
    27       45           2
    27       46           2
    27       62           0
    27       72           1
    27       76           3
    27       82           0
    28        9           2
    28       10           0
    28       20           0
    28       31           0
    28       35           0
    28       56           1
    28       65           1
    28       70           2
    28       73           0
    28       89           0
    29        3           2
    29        9           4
    29       17           2
    29       43           0
    29       59           0
    29       64           4
    29       70           1
    29       73           1
    29       80           2
    29      100           3
    30       17           1
    30       30           4
    30       40           3
    30       41           3
    30       47           4
    30       60           1
    30       64           3
    30       67           4
    30       77           3
    30       87           3
    31        4           4
    31       17           1
    31       19           2
    31       25           2
    31       33           1
    31       45           3
    31       62           0
    31       67           3
    31       73           1
    31       82           2
    32        2           3
    32        3           0
    32       16           3
    32       24           2
    32       34           3
    32       40           1
    32       50           4
    32       55           2
    32       57           1
    32       76           1
    33        2           0
    33       17           3
    33       19           2
    33       26           1
    33       32           4
    33       38           3
    33       50           2
    33       81           0
    33       98           4
    33       99           2
    34        5           2
    34        7           4
    34       12           3
    34       23           3
    34       43           4
    34       57           0
    34       60           0
    34       76           3
    34       81           2
    34       95           3
    35        1           3
    35        8           2
    35       13           3
    35       30           4
    35       38           0
    35       46           1
    35       57           3
    35       59           2
    35       98           0
    35      100           2
    36        1           2
    36        6           3
    36       16           3
    36       27           3
    36       64           3
    36       65           4
    36       70           4
    36       78           2
    36       87           3
    36      100           0
    37        1           2
    37       11           0
    37       37           0
    37       41           2
    37       62           1
    37       66           0
    37       71           2
    37       79           1
    37       90           0
    37       99           4
    38       14           4
    38       30           0
    38       36           2
    38       41           1
    38       55           2
    38       62           4
    38       88           0
    38       92           0
    38       94           4
    38       98           0
    39        9           1
    39       14           2
    39       21           0
    39       24           3
    39       25           4
    39       43           1
    39       49           3
    39       64           3
    39       93           4
    39       97           0
    40       18           3
    40       39           3
    40       44           3
    40       54           1
    40       58           4
    40       61           1
    40       68           4
    40       83           3
    40       89           2
    40       97           4
    41        5           3
    41        6           2
    41       33           0
    41       54           1
    41       55           2
    41       59           1
    41       65           3
    41       73           2
    41       89           0
    41       94           3
    42        1           1
    42        7           0
    42       20           0
    42       23           4
    42       25           2
    42       26           2
    42       29           4
    42       36           2
    42       54           3
    42       63           3
    43        5           4
    43        6           1
    43       32           4
    43       35           1
    43       53           1
    43       59           0
    43       70           0
    43       81           1
    43       85           4
    43       94           1
    44       19           2
    44       26           1
    44       37           2
    44       52           4
    44       57           3
    44       58           4
    44       69           4
    44       71           1
    44       85           0
    44      100           3
    45        8           3
    45       33           4
    45       38           4
    45       55           4
    45       60           0
    45       77           4
    45       78           4
    45       80           1
    45       84           1
    45       99           0
    46        7           0
    46       25           3
    46       31           1
    46       37           0
    46       45           4
    46       54           2
    46       61           1
    46       71           2
    46       76           1
    46       93           2
    47       16           0
    47       17           3
    47       22           3
    47       47           4
    47       75           1
    47       77           0
    47       79           2
    47       80           0
    47       85           4
    47       95           4
    48        1           3
    48        9           3
    48       10           3
    48       11           3
    48       24           2
    48       26           2
    48       31           2
    48       36           1
    48       69           1
    48       74           1
    49        9           3
    49       13           3
    49       17           3
    49       36           0
    49       38           2
    49       61           4
    49       79           2
    49       80           0
    49       93           4
    49       96           2
    50        9           0
    50       12           3
    50       16           2
    50       25           3
    50       34           4
    50       47           3
    50       50           1
    50       73           3
    50       82           2
    50       99           2
    51        1           0
    51        6           0
    51       18           4
    51       27           1
    51       39           3
    51       45           3
    51       60           2
    51       73           0
    51       80           4
    51       91           1
    52       18           2
    52       25           2
    52       38           3
    52       44           2
    52       54           3
    52       62           1
    52       66           4
    52       78           3
    52       87           3
    52       95           1
    53        8           3
    53       10           3
    53       28           2
    53       31           2
    53       44           1
    53       53           3
    53       56           1
    53       83           2
    53       89           1
    53       92           1
    54        7           2
    54       11           1
    54       19           3
    54       20           0
    54       23           2
    54       38           0
    54       40           2
    54       47           3
    54       51           0
    54       57           3
    55        8           0
    55       15           0
    55       24           1
    55       38           1
    55       52           1
    55       58           1
    55       80           4
    55       85           1
    55       96           1
    55       98           0
    56        5           1
    56       10           2
    56       12           3
    56       27           4
    56       42           0
    56       45           2
    56       46           3
    56       59           1
    56       86           4
    56       94           4
    57        3           0
    57       11           1
    57       18           2
    57       21           1
    57       37           1
    57       42           3
    57       61           0
    57       68           1
    57       92           1
    57       99           3
    58        3           4
    58       14           2
    58       26           2
    58       29           3
    58       37           2
    58       43           2
    58       56           3
    58       59           3
    58       61           0
    58       90           3
    59        1           4
    59       13           1
    59       43           2
    59       46           0
    59       66           4
    59       69           1
    59       71           0
    59       82           3
    59       90           1
    59       94           0
    60       11           1
    60       23           1
    60       27           1
    60       45           1
    60       49           0
    60       70           0
    60       88           3
    60       90           4
    60       94           2
    60       98           3
    61        2           1
    61        6           4
    61       33           0
    61       60           4
    61       61           0
    61       68           4
    61       81           3
    61       86           4
    61       95           4
    61      100           3
    62        4           0
    62       12           2
    62       35           0
    62       45           3
    62       53           0
    62       72           2
    62       77           0
    62       83           0
    62       89           2
    62       98           4
    63       11           0
    63       23           1
    63       36           4
    63       40           4
    63       54           0
    63       61           2
    63       70           2
    63       73           3
    63       78           0
    63       81           0
    64       18           1
    64       19           0
    64       22           4
    64       37           1
    64       40           1
    64       47           2
    64       53           3
    64       58           1
    64       88           0
    64       93           2
    65       17           2
    65       18           4
    65       53           0
    65       54           4
    65       67           0
    65       75           1
    65       79           1
    65       80           2
    65       85           1
    65       88           3
    66       11           3
    66       17           3
    66       20           3
    66       61           3
    66       71           0
    66       73           2
    66       75           1
    66       78           2
    66       87           4
    66       99           1
    67        9           2
    67       12           0
    67       22           3
    67       25           0
    67       33           1
    67       35           4
    67       40           2
    67       44           2
    67       66           3
    67       80           0
    68       23           3
    68       31           0
    68       40           1
    68       55           4
    68       61           3
    68       62           3
    68       72           3
    68       80           2
    68       82           3
    68      100           1
    69       22           2
    69       27           1
    69       33           3
    69       34           2
    69       44           1
    69       62           3
    69       67           2
    69       72           3
    69       81           3
    69       82           2
    70        4           0
    70        7           1
    70       10           1
    70       18           0
    70       21           4
    70       23           4
    70       42           1
    70       59           4
    70       74           3
    70       87           1
    71       33           4
    71       34           1
    71       43           3
    71       49           0
    71       66           3
    71       71           2
    71       82           2
    71       85           4
    71       96           2
    71       98           3
    72        1           1
    72        2           3
    72       12           2
    72       23           1
    72       30           1
    72       53           2
    72       64           4
    72       65           2
    72       69           0
    72       71           4
    73        5           0
    73       34           2
    73       55           4
    73       58           4
    73       61           3
    73       63           1
    73       70           4
    73       87           4
    73       97           0
    73       99           1
    74       18           2
    74       39           2
    74       43           4
    74       45           2
    74       59           4
    74       60           0
    74       74           0
    74       76           1
    74       78           3
    74       92           0
    75        2           3
    75       13           3
    75       33           4
    75       39           3
    75       50           1
    75       51           4
    75       54           3
    75       58           3
    75       80           4
    75       89           3
    76       16           2
    76       18           3
    76       29           0
    76       46           4
    76       56           3
    76       60           2
    76       93           1
    76       94           3
    76       97           0
    76       98           4
    77       12           4
    77       14           0
    77       19           3
    77       34           2
    77       50           2
    77       63           1
    77       75           2
    77       77           1
    77       83           0
    77       98           4
    78        5           2
    78       14           4
    78       16           3
    78       31           2
    78       32           3
    78       62           2
    78       64           4
    78       65           1
    78       75           2
    78       76           1
    79        4           1
    79       13           4
    79       22           2
    79       27           3
    79       47           1
    79       57           1
    79       60           0
    79       72           4
    79       78           2
    79      100           3
    80       14           2
    80       28           0
    80       30           0
    80       32           4
    80       38           3
    80       65           1
    80       69           1
    80       73           4
    80       80           0
    80       96           4
    81        2           3
    81       17           1
    81       25           0
    81       35           2
    81       37           3
    81       68           1
    81       75           0
    81       85           1
    81       91           1
    81       96           0
    82        1           2
    82       11           4
    82       20           2
    82       32           1
    82       41           1
    82       45           3
    82       52           4
    82       63           3
    82       93           4
    82       96           2
    83       10           3
    83       23           2
    83       26           2
    83       41           3
    83       45           0
    83       49           3
    83       52           4
    83       56           4
    83       70           2
    83       83           0
    84       10           0
    84       31           3
    84       41           3
    84       43           3
    84       50           3
    84       68           3
    84       82           0
    84       88           3
    84       95           2
    84       97           0
    85        9           2
    85       12           4
    85       14           2
    85       26           2
    85       38           4
    85       53           0
    85       63           2
    85       64           0
    85       69           1
    85       81           3
    86        2           3
    86        3           4
    86       19           4
    86       32           2
    86       41           0
    86       45           2
    86       68           4
    86       93           3
    86       95           0
    86       97           1
    87       11           3
    87       33           4
    87       38           2
    87       42           1
    87       48           0
    87       65           3
    87       66           2
    87       73           2
    87       87           4
    87       92           0
    88        6           3
    88       20           0
    88       22           2
    88       26           2
    88       43           0
    88       46           1
    88       54           4
    88       56           0
    88       75           0
    88       92           4
    89       23           2
    89       47           4
    89       50           1
    89       52           4
    89       63           4
    89       65           4
    89       66           2
    89       94           3
    89       96           1
    89       99           2
    90        2           0
    90        4           2
    90       17           2
    90       21           0
    90       28           4
    90       51           3
    90       89           4
    90       94           1
    90       96           3
    90       99           4
    91        4           2
    91        5           4
    91       47           1
    91       61           3
    91       63           2
    91       67           0
    91       70           0
    91       78           2
    91       80           2
    91       98           2
    92       11           1
    92       14           1
    92       19           3
    92       28           1
    92       35           4
    92       51           1
    92       71           0
    92       86           2
    92       98           0
    92      100           2
    93       12           1
    93       17           4
    93       22           4
    93       25           0
    93       32           1
    93       37           2
    93       48           1
    93       69           4
    93       74           3
    93       93           4
    94        2           4
    94       34           1
    94       36           2
    94       38           2
    94       49           4
    94       60           2
    94       67           0
    94       79           1
    94       82           2
    94       93           4
    95        7           3
    95       27           3
    95       28           0
    95       32           0
    95       33           3
    95       64           3
    95       72           1
    95       74           2
    95       90           1
    95       96           4
    96        4           2
    96       20           4
    96       21           3
    96       33           0
    96       40           2
    96       46           1
    96       56           4
    96       80           2
    96       83           0
    96       86           4
    97        3           1
    97       16           0
    97       26           2
    97       39           2
    97       45           1
    97       61           0
    97       78           0
    97       84           2
    97       88           1
    97       94           4
    98        7           0
    98       21           3
    98       22           1
    98       30           4
    98       31           2
    98       32           1
    98       35           1
    98       38           0
    98       69           3
    98       77           3
    99        3           1
    99       14           1
    99       20           4
    99       32           3
    99       41           3
    99       49           3
    99       52           2
    99       71           4
    99       81           3
    99       94           3
   100        5           1
   100        8           2
   100        9           2
   100       12           0
   100       17           0
   100       56           0
   100       63           4
   100       65           2
   100       70           2
   100       79           1
